predicate alldifferentBut0Choco(array [int] of var int: x);
predicate value_precede_chain_intChoco(array [int] of int: c,array [int] of var int: x);
array [1..2] of int: X_INTRODUCED_38_ = [1,2];
array [1..4] of int: X_INTRODUCED_39_ = [3,4,5,6];
array [1..2] of int: X_INTRODUCED_40_ = [7,8];
array [1..2] of int: X_INTRODUCED_41_ = [9,10];
array [1..35] of int: X_INTRODUCED_155_ = [1,-2871,-2871,-2871,-2871,-2871,-2871,-510,-510,-510,-510,-510,-711,-711,-711,-2212,-2212,-2212,-2212,-2212,-2212,-2212,-1512,-1512,-1512,-1610,-1610,-1610,-1610,-1610,-528,-4355,-4355,-4355,-4355];
var {0,1,2,7,8}: X_INTRODUCED_0_;
var {0,1,2,7,8}: X_INTRODUCED_1_;
var {0,1,2,7,8}: X_INTRODUCED_2_;
var {0,1,2,7,8}: X_INTRODUCED_3_;
var {0,1,2,7,8}: X_INTRODUCED_4_;
var 0..2: X_INTRODUCED_5_;
var 0..2: X_INTRODUCED_6_;
var 0..2: X_INTRODUCED_7_;
var 0..8: X_INTRODUCED_8_;
var {0,1,2,7,8}: X_INTRODUCED_9_;
var {0,1,2,7,8}: X_INTRODUCED_10_;
var {0,1,2,7,8}: X_INTRODUCED_11_;
var {0,1,2,7,8}: X_INTRODUCED_12_;
var {0,1,2,7,8}: X_INTRODUCED_13_;
var {0,1,2,7,8}: X_INTRODUCED_14_;
var {0,1,2,7,8}: X_INTRODUCED_15_;
var 0..10: X_INTRODUCED_16_;
var 0..10: X_INTRODUCED_17_;
var 0..10: X_INTRODUCED_18_;
var 0..10: X_INTRODUCED_19_;
var {0,1,2,7,8}: X_INTRODUCED_20_;
var {0,1,2,7,8}: X_INTRODUCED_21_;
var 0..2: X_INTRODUCED_22_;
var 0..2: X_INTRODUCED_23_;
var 0..2: X_INTRODUCED_24_;
var 0..2: X_INTRODUCED_25_;
var 0..2: X_INTRODUCED_26_;
var 0..2: X_INTRODUCED_27_;
var 0..2: X_INTRODUCED_28_;
var 0..2: X_INTRODUCED_29_;
var 0..8: X_INTRODUCED_30_;
var 0..8: X_INTRODUCED_31_;
var 0..8: X_INTRODUCED_32_;
var 0..8: X_INTRODUCED_33_;
var 0..67927: objective:: output_var:: is_defined_var;
var bool: X_INTRODUCED_42_ ::var_is_introduced :: is_defined_var;
var 0..1: X_INTRODUCED_43_ ::var_is_introduced :: is_defined_var;
var bool: X_INTRODUCED_46_ ::var_is_introduced :: is_defined_var;
var 0..1: X_INTRODUCED_47_ ::var_is_introduced :: is_defined_var;
var bool: X_INTRODUCED_49_ ::var_is_introduced :: is_defined_var;
var 0..1: X_INTRODUCED_50_ ::var_is_introduced :: is_defined_var;
var bool: X_INTRODUCED_52_ ::var_is_introduced :: is_defined_var;
var 0..1: X_INTRODUCED_53_ ::var_is_introduced :: is_defined_var;
var bool: X_INTRODUCED_55_ ::var_is_introduced :: is_defined_var;
var 0..1: X_INTRODUCED_56_ ::var_is_introduced :: is_defined_var;
var bool: X_INTRODUCED_58_ ::var_is_introduced :: is_defined_var;
var 0..1: X_INTRODUCED_59_ ::var_is_introduced :: is_defined_var;
var bool: X_INTRODUCED_61_ ::var_is_introduced :: is_defined_var;
var 0..1: X_INTRODUCED_62_ ::var_is_introduced :: is_defined_var;
var bool: X_INTRODUCED_65_ ::var_is_introduced :: is_defined_var;
var 0..1: X_INTRODUCED_66_ ::var_is_introduced :: is_defined_var;
var bool: X_INTRODUCED_68_ ::var_is_introduced :: is_defined_var;
var 0..1: X_INTRODUCED_69_ ::var_is_introduced :: is_defined_var;
var bool: X_INTRODUCED_71_ ::var_is_introduced :: is_defined_var;
var 0..1: X_INTRODUCED_72_ ::var_is_introduced :: is_defined_var;
var bool: X_INTRODUCED_74_ ::var_is_introduced :: is_defined_var;
var 0..1: X_INTRODUCED_75_ ::var_is_introduced :: is_defined_var;
var bool: X_INTRODUCED_77_ ::var_is_introduced :: is_defined_var;
var 0..1: X_INTRODUCED_78_ ::var_is_introduced :: is_defined_var;
var bool: X_INTRODUCED_81_ ::var_is_introduced :: is_defined_var;
var 0..1: X_INTRODUCED_82_ ::var_is_introduced :: is_defined_var;
var bool: X_INTRODUCED_84_ ::var_is_introduced :: is_defined_var;
var 0..1: X_INTRODUCED_85_ ::var_is_introduced :: is_defined_var;
var bool: X_INTRODUCED_87_ ::var_is_introduced :: is_defined_var;
var 0..1: X_INTRODUCED_88_ ::var_is_introduced :: is_defined_var;
var bool: X_INTRODUCED_91_ ::var_is_introduced :: is_defined_var;
var 0..1: X_INTRODUCED_92_ ::var_is_introduced :: is_defined_var;
var bool: X_INTRODUCED_94_ ::var_is_introduced :: is_defined_var;
var 0..1: X_INTRODUCED_95_ ::var_is_introduced :: is_defined_var;
var bool: X_INTRODUCED_97_ ::var_is_introduced :: is_defined_var;
var 0..1: X_INTRODUCED_98_ ::var_is_introduced :: is_defined_var;
var bool: X_INTRODUCED_100_ ::var_is_introduced :: is_defined_var;
var 0..1: X_INTRODUCED_101_ ::var_is_introduced :: is_defined_var;
var bool: X_INTRODUCED_103_ ::var_is_introduced :: is_defined_var;
var 0..1: X_INTRODUCED_104_ ::var_is_introduced :: is_defined_var;
var bool: X_INTRODUCED_106_ ::var_is_introduced :: is_defined_var;
var 0..1: X_INTRODUCED_107_ ::var_is_introduced :: is_defined_var;
var bool: X_INTRODUCED_109_ ::var_is_introduced :: is_defined_var;
var 0..1: X_INTRODUCED_110_ ::var_is_introduced :: is_defined_var;
var bool: X_INTRODUCED_113_ ::var_is_introduced :: is_defined_var;
var 0..1: X_INTRODUCED_114_ ::var_is_introduced :: is_defined_var;
var bool: X_INTRODUCED_116_ ::var_is_introduced :: is_defined_var;
var 0..1: X_INTRODUCED_117_ ::var_is_introduced :: is_defined_var;
var bool: X_INTRODUCED_119_ ::var_is_introduced :: is_defined_var;
var 0..1: X_INTRODUCED_120_ ::var_is_introduced :: is_defined_var;
var bool: X_INTRODUCED_123_ ::var_is_introduced :: is_defined_var;
var 0..1: X_INTRODUCED_124_ ::var_is_introduced :: is_defined_var;
var bool: X_INTRODUCED_126_ ::var_is_introduced :: is_defined_var;
var 0..1: X_INTRODUCED_127_ ::var_is_introduced :: is_defined_var;
var bool: X_INTRODUCED_129_ ::var_is_introduced :: is_defined_var;
var 0..1: X_INTRODUCED_130_ ::var_is_introduced :: is_defined_var;
var bool: X_INTRODUCED_132_ ::var_is_introduced :: is_defined_var;
var 0..1: X_INTRODUCED_133_ ::var_is_introduced :: is_defined_var;
var bool: X_INTRODUCED_135_ ::var_is_introduced :: is_defined_var;
var 0..1: X_INTRODUCED_136_ ::var_is_introduced :: is_defined_var;
var bool: X_INTRODUCED_139_ ::var_is_introduced :: is_defined_var;
var 0..1: X_INTRODUCED_140_ ::var_is_introduced :: is_defined_var;
var bool: X_INTRODUCED_143_ ::var_is_introduced :: is_defined_var;
var 0..1: X_INTRODUCED_144_ ::var_is_introduced :: is_defined_var;
var bool: X_INTRODUCED_146_ ::var_is_introduced :: is_defined_var;
var 0..1: X_INTRODUCED_147_ ::var_is_introduced :: is_defined_var;
var bool: X_INTRODUCED_149_ ::var_is_introduced :: is_defined_var;
var 0..1: X_INTRODUCED_150_ ::var_is_introduced :: is_defined_var;
var bool: X_INTRODUCED_156_ ::var_is_introduced :: is_defined_var;
var bool: X_INTRODUCED_157_ ::var_is_introduced :: is_defined_var;
var bool: X_INTRODUCED_158_ ::var_is_introduced :: is_defined_var;
var bool: X_INTRODUCED_159_ ::var_is_introduced :: is_defined_var;
var bool: X_INTRODUCED_160_ ::var_is_introduced :: is_defined_var;
var bool: X_INTRODUCED_161_ ::var_is_introduced :: is_defined_var;
var bool: X_INTRODUCED_162_ ::var_is_introduced :: is_defined_var;
var bool: X_INTRODUCED_163_ ::var_is_introduced :: is_defined_var;
var bool: X_INTRODUCED_164_ ::var_is_introduced :: is_defined_var;
var bool: X_INTRODUCED_165_ ::var_is_introduced :: is_defined_var;
var 0..1: X_INTRODUCED_167_ ::var_is_introduced :: is_defined_var;
var 0..1: X_INTRODUCED_168_ ::var_is_introduced :: is_defined_var;
var 0..1: X_INTRODUCED_169_ ::var_is_introduced :: is_defined_var;
var 0..1: X_INTRODUCED_170_ ::var_is_introduced :: is_defined_var;
var 0..1: X_INTRODUCED_171_ ::var_is_introduced :: is_defined_var;
var 0..1: X_INTRODUCED_172_ ::var_is_introduced :: is_defined_var;
var 0..1: X_INTRODUCED_173_ ::var_is_introduced :: is_defined_var;
var 0..1: X_INTRODUCED_174_ ::var_is_introduced :: is_defined_var;
var 0..1: X_INTRODUCED_175_ ::var_is_introduced :: is_defined_var;
var 0..1: X_INTRODUCED_176_ ::var_is_introduced :: is_defined_var;
array [1..34] of var int: assign:: output_array([1..34]) = [X_INTRODUCED_0_,X_INTRODUCED_1_,X_INTRODUCED_2_,X_INTRODUCED_3_,X_INTRODUCED_4_,X_INTRODUCED_5_,X_INTRODUCED_6_,X_INTRODUCED_7_,X_INTRODUCED_8_,X_INTRODUCED_9_,X_INTRODUCED_10_,X_INTRODUCED_11_,X_INTRODUCED_12_,X_INTRODUCED_13_,X_INTRODUCED_14_,X_INTRODUCED_15_,X_INTRODUCED_16_,X_INTRODUCED_17_,X_INTRODUCED_18_,X_INTRODUCED_19_,X_INTRODUCED_20_,X_INTRODUCED_21_,X_INTRODUCED_22_,X_INTRODUCED_23_,X_INTRODUCED_24_,X_INTRODUCED_25_,X_INTRODUCED_26_,X_INTRODUCED_27_,X_INTRODUCED_28_,X_INTRODUCED_29_,X_INTRODUCED_30_,X_INTRODUCED_31_,X_INTRODUCED_32_,X_INTRODUCED_33_];
array [1..22] of var int: X_INTRODUCED_35_ ::var_is_introduced  = [X_INTRODUCED_0_,X_INTRODUCED_1_,X_INTRODUCED_2_,X_INTRODUCED_3_,X_INTRODUCED_4_,X_INTRODUCED_5_,X_INTRODUCED_6_,X_INTRODUCED_7_,X_INTRODUCED_8_,X_INTRODUCED_9_,X_INTRODUCED_10_,X_INTRODUCED_11_,X_INTRODUCED_12_,X_INTRODUCED_13_,X_INTRODUCED_14_,X_INTRODUCED_15_,X_INTRODUCED_16_,X_INTRODUCED_17_,X_INTRODUCED_18_,X_INTRODUCED_19_,X_INTRODUCED_20_,X_INTRODUCED_29_];
array [1..12] of var int: X_INTRODUCED_36_ ::var_is_introduced  = [X_INTRODUCED_21_,X_INTRODUCED_22_,X_INTRODUCED_23_,X_INTRODUCED_24_,X_INTRODUCED_25_,X_INTRODUCED_26_,X_INTRODUCED_27_,X_INTRODUCED_28_,X_INTRODUCED_30_,X_INTRODUCED_31_,X_INTRODUCED_32_,X_INTRODUCED_33_];
array [1..23] of var int: X_INTRODUCED_37_ ::var_is_introduced  = [X_INTRODUCED_0_,X_INTRODUCED_1_,X_INTRODUCED_2_,X_INTRODUCED_3_,X_INTRODUCED_4_,X_INTRODUCED_5_,X_INTRODUCED_6_,X_INTRODUCED_7_,X_INTRODUCED_8_,X_INTRODUCED_9_,X_INTRODUCED_10_,X_INTRODUCED_14_,X_INTRODUCED_15_,X_INTRODUCED_16_,X_INTRODUCED_17_,X_INTRODUCED_18_,X_INTRODUCED_19_,X_INTRODUCED_20_,X_INTRODUCED_29_,X_INTRODUCED_30_,X_INTRODUCED_31_,X_INTRODUCED_32_,X_INTRODUCED_33_];
array [1..35] of var int: X_INTRODUCED_154_ ::var_is_introduced  = [objective,X_INTRODUCED_43_,X_INTRODUCED_47_,X_INTRODUCED_50_,X_INTRODUCED_53_,X_INTRODUCED_56_,X_INTRODUCED_59_,X_INTRODUCED_62_,X_INTRODUCED_66_,X_INTRODUCED_69_,X_INTRODUCED_72_,X_INTRODUCED_75_,X_INTRODUCED_78_,X_INTRODUCED_82_,X_INTRODUCED_85_,X_INTRODUCED_88_,X_INTRODUCED_92_,X_INTRODUCED_95_,X_INTRODUCED_98_,X_INTRODUCED_101_,X_INTRODUCED_104_,X_INTRODUCED_107_,X_INTRODUCED_110_,X_INTRODUCED_114_,X_INTRODUCED_117_,X_INTRODUCED_120_,X_INTRODUCED_124_,X_INTRODUCED_127_,X_INTRODUCED_130_,X_INTRODUCED_133_,X_INTRODUCED_136_,X_INTRODUCED_140_,X_INTRODUCED_144_,X_INTRODUCED_147_,X_INTRODUCED_150_];
array [1..44] of var int: X_INTRODUCED_177_ ::var_is_introduced  = [X_INTRODUCED_167_,X_INTRODUCED_168_,X_INTRODUCED_169_,X_INTRODUCED_170_,X_INTRODUCED_171_,X_INTRODUCED_172_,X_INTRODUCED_173_,X_INTRODUCED_174_,X_INTRODUCED_175_,X_INTRODUCED_176_,X_INTRODUCED_0_,X_INTRODUCED_1_,X_INTRODUCED_2_,X_INTRODUCED_3_,X_INTRODUCED_4_,X_INTRODUCED_5_,X_INTRODUCED_6_,X_INTRODUCED_7_,X_INTRODUCED_8_,X_INTRODUCED_9_,X_INTRODUCED_10_,X_INTRODUCED_11_,X_INTRODUCED_12_,X_INTRODUCED_13_,X_INTRODUCED_14_,X_INTRODUCED_15_,X_INTRODUCED_16_,X_INTRODUCED_17_,X_INTRODUCED_18_,X_INTRODUCED_19_,X_INTRODUCED_20_,X_INTRODUCED_21_,X_INTRODUCED_22_,X_INTRODUCED_23_,X_INTRODUCED_24_,X_INTRODUCED_25_,X_INTRODUCED_26_,X_INTRODUCED_27_,X_INTRODUCED_28_,X_INTRODUCED_29_,X_INTRODUCED_30_,X_INTRODUCED_31_,X_INTRODUCED_32_,X_INTRODUCED_33_];
constraint alldifferentBut0Choco(X_INTRODUCED_35_):: bounds;
constraint alldifferentBut0Choco(X_INTRODUCED_36_):: bounds;
constraint alldifferentBut0Choco(X_INTRODUCED_37_):: bounds;
constraint value_precede_chain_intChoco(X_INTRODUCED_38_,assign);
constraint value_precede_chain_intChoco(X_INTRODUCED_39_,assign);
constraint value_precede_chain_intChoco(X_INTRODUCED_40_,assign);
constraint value_precede_chain_intChoco(X_INTRODUCED_41_,assign);
constraint int_lin_eq(X_INTRODUCED_155_,X_INTRODUCED_154_,0):: defines_var(objective);
constraint int_le_reif(1,X_INTRODUCED_0_,X_INTRODUCED_42_):: defines_var(X_INTRODUCED_42_);
constraint bool2int(X_INTRODUCED_42_,X_INTRODUCED_43_):: defines_var(X_INTRODUCED_43_);
constraint int_le_reif(1,X_INTRODUCED_1_,X_INTRODUCED_46_):: defines_var(X_INTRODUCED_46_);
constraint bool2int(X_INTRODUCED_46_,X_INTRODUCED_47_):: defines_var(X_INTRODUCED_47_);
constraint int_le_reif(1,X_INTRODUCED_2_,X_INTRODUCED_49_):: defines_var(X_INTRODUCED_49_);
constraint bool2int(X_INTRODUCED_49_,X_INTRODUCED_50_):: defines_var(X_INTRODUCED_50_);
constraint int_le_reif(1,X_INTRODUCED_3_,X_INTRODUCED_52_):: defines_var(X_INTRODUCED_52_);
constraint bool2int(X_INTRODUCED_52_,X_INTRODUCED_53_):: defines_var(X_INTRODUCED_53_);
constraint int_le_reif(1,X_INTRODUCED_4_,X_INTRODUCED_55_):: defines_var(X_INTRODUCED_55_);
constraint bool2int(X_INTRODUCED_55_,X_INTRODUCED_56_):: defines_var(X_INTRODUCED_56_);
constraint int_le_reif(1,X_INTRODUCED_5_,X_INTRODUCED_58_):: defines_var(X_INTRODUCED_58_);
constraint bool2int(X_INTRODUCED_58_,X_INTRODUCED_59_):: defines_var(X_INTRODUCED_59_);
constraint int_le_reif(1,X_INTRODUCED_6_,X_INTRODUCED_61_):: defines_var(X_INTRODUCED_61_);
constraint bool2int(X_INTRODUCED_61_,X_INTRODUCED_62_):: defines_var(X_INTRODUCED_62_);
constraint int_le_reif(1,X_INTRODUCED_7_,X_INTRODUCED_65_):: defines_var(X_INTRODUCED_65_);
constraint bool2int(X_INTRODUCED_65_,X_INTRODUCED_66_):: defines_var(X_INTRODUCED_66_);
constraint int_le_reif(1,X_INTRODUCED_8_,X_INTRODUCED_68_):: defines_var(X_INTRODUCED_68_);
constraint bool2int(X_INTRODUCED_68_,X_INTRODUCED_69_):: defines_var(X_INTRODUCED_69_);
constraint int_le_reif(1,X_INTRODUCED_9_,X_INTRODUCED_71_):: defines_var(X_INTRODUCED_71_);
constraint bool2int(X_INTRODUCED_71_,X_INTRODUCED_72_):: defines_var(X_INTRODUCED_72_);
constraint int_le_reif(1,X_INTRODUCED_10_,X_INTRODUCED_74_):: defines_var(X_INTRODUCED_74_);
constraint bool2int(X_INTRODUCED_74_,X_INTRODUCED_75_):: defines_var(X_INTRODUCED_75_);
constraint int_le_reif(1,X_INTRODUCED_11_,X_INTRODUCED_77_):: defines_var(X_INTRODUCED_77_);
constraint bool2int(X_INTRODUCED_77_,X_INTRODUCED_78_):: defines_var(X_INTRODUCED_78_);
constraint int_le_reif(1,X_INTRODUCED_12_,X_INTRODUCED_81_):: defines_var(X_INTRODUCED_81_);
constraint bool2int(X_INTRODUCED_81_,X_INTRODUCED_82_):: defines_var(X_INTRODUCED_82_);
constraint int_le_reif(1,X_INTRODUCED_13_,X_INTRODUCED_84_):: defines_var(X_INTRODUCED_84_);
constraint bool2int(X_INTRODUCED_84_,X_INTRODUCED_85_):: defines_var(X_INTRODUCED_85_);
constraint int_le_reif(1,X_INTRODUCED_14_,X_INTRODUCED_87_):: defines_var(X_INTRODUCED_87_);
constraint bool2int(X_INTRODUCED_87_,X_INTRODUCED_88_):: defines_var(X_INTRODUCED_88_);
constraint int_le_reif(1,X_INTRODUCED_15_,X_INTRODUCED_91_):: defines_var(X_INTRODUCED_91_);
constraint bool2int(X_INTRODUCED_91_,X_INTRODUCED_92_):: defines_var(X_INTRODUCED_92_);
constraint int_le_reif(1,X_INTRODUCED_16_,X_INTRODUCED_94_):: defines_var(X_INTRODUCED_94_);
constraint bool2int(X_INTRODUCED_94_,X_INTRODUCED_95_):: defines_var(X_INTRODUCED_95_);
constraint int_le_reif(1,X_INTRODUCED_17_,X_INTRODUCED_97_):: defines_var(X_INTRODUCED_97_);
constraint bool2int(X_INTRODUCED_97_,X_INTRODUCED_98_):: defines_var(X_INTRODUCED_98_);
constraint int_le_reif(1,X_INTRODUCED_18_,X_INTRODUCED_100_):: defines_var(X_INTRODUCED_100_);
constraint bool2int(X_INTRODUCED_100_,X_INTRODUCED_101_):: defines_var(X_INTRODUCED_101_);
constraint int_le_reif(1,X_INTRODUCED_19_,X_INTRODUCED_103_):: defines_var(X_INTRODUCED_103_);
constraint bool2int(X_INTRODUCED_103_,X_INTRODUCED_104_):: defines_var(X_INTRODUCED_104_);
constraint int_le_reif(1,X_INTRODUCED_20_,X_INTRODUCED_106_):: defines_var(X_INTRODUCED_106_);
constraint bool2int(X_INTRODUCED_106_,X_INTRODUCED_107_):: defines_var(X_INTRODUCED_107_);
constraint int_le_reif(1,X_INTRODUCED_21_,X_INTRODUCED_109_):: defines_var(X_INTRODUCED_109_);
constraint bool2int(X_INTRODUCED_109_,X_INTRODUCED_110_):: defines_var(X_INTRODUCED_110_);
constraint int_le_reif(1,X_INTRODUCED_22_,X_INTRODUCED_113_):: defines_var(X_INTRODUCED_113_);
constraint bool2int(X_INTRODUCED_113_,X_INTRODUCED_114_):: defines_var(X_INTRODUCED_114_);
constraint int_le_reif(1,X_INTRODUCED_23_,X_INTRODUCED_116_):: defines_var(X_INTRODUCED_116_);
constraint bool2int(X_INTRODUCED_116_,X_INTRODUCED_117_):: defines_var(X_INTRODUCED_117_);
constraint int_le_reif(1,X_INTRODUCED_24_,X_INTRODUCED_119_):: defines_var(X_INTRODUCED_119_);
constraint bool2int(X_INTRODUCED_119_,X_INTRODUCED_120_):: defines_var(X_INTRODUCED_120_);
constraint int_le_reif(1,X_INTRODUCED_25_,X_INTRODUCED_123_):: defines_var(X_INTRODUCED_123_);
constraint bool2int(X_INTRODUCED_123_,X_INTRODUCED_124_):: defines_var(X_INTRODUCED_124_);
constraint int_le_reif(1,X_INTRODUCED_26_,X_INTRODUCED_126_):: defines_var(X_INTRODUCED_126_);
constraint bool2int(X_INTRODUCED_126_,X_INTRODUCED_127_):: defines_var(X_INTRODUCED_127_);
constraint int_le_reif(1,X_INTRODUCED_27_,X_INTRODUCED_129_):: defines_var(X_INTRODUCED_129_);
constraint bool2int(X_INTRODUCED_129_,X_INTRODUCED_130_):: defines_var(X_INTRODUCED_130_);
constraint int_le_reif(1,X_INTRODUCED_28_,X_INTRODUCED_132_):: defines_var(X_INTRODUCED_132_);
constraint bool2int(X_INTRODUCED_132_,X_INTRODUCED_133_):: defines_var(X_INTRODUCED_133_);
constraint int_le_reif(1,X_INTRODUCED_29_,X_INTRODUCED_135_):: defines_var(X_INTRODUCED_135_);
constraint bool2int(X_INTRODUCED_135_,X_INTRODUCED_136_):: defines_var(X_INTRODUCED_136_);
constraint int_le_reif(1,X_INTRODUCED_30_,X_INTRODUCED_139_):: defines_var(X_INTRODUCED_139_);
constraint bool2int(X_INTRODUCED_139_,X_INTRODUCED_140_):: defines_var(X_INTRODUCED_140_);
constraint int_le_reif(1,X_INTRODUCED_31_,X_INTRODUCED_143_):: defines_var(X_INTRODUCED_143_);
constraint bool2int(X_INTRODUCED_143_,X_INTRODUCED_144_):: defines_var(X_INTRODUCED_144_);
constraint int_le_reif(1,X_INTRODUCED_32_,X_INTRODUCED_146_):: defines_var(X_INTRODUCED_146_);
constraint bool2int(X_INTRODUCED_146_,X_INTRODUCED_147_):: defines_var(X_INTRODUCED_147_);
constraint int_le_reif(1,X_INTRODUCED_33_,X_INTRODUCED_149_):: defines_var(X_INTRODUCED_149_);
constraint bool2int(X_INTRODUCED_149_,X_INTRODUCED_150_):: defines_var(X_INTRODUCED_150_);
constraint int_le_reif(X_INTRODUCED_0_,0,X_INTRODUCED_156_):: defines_var(X_INTRODUCED_156_);
constraint int_le_reif(X_INTRODUCED_1_,0,X_INTRODUCED_157_):: defines_var(X_INTRODUCED_157_);
constraint int_le_reif(X_INTRODUCED_2_,0,X_INTRODUCED_158_):: defines_var(X_INTRODUCED_158_);
constraint int_le_reif(X_INTRODUCED_3_,0,X_INTRODUCED_159_):: defines_var(X_INTRODUCED_159_);
constraint int_le_reif(X_INTRODUCED_4_,0,X_INTRODUCED_160_):: defines_var(X_INTRODUCED_160_);
constraint int_le_reif(X_INTRODUCED_5_,0,X_INTRODUCED_161_):: defines_var(X_INTRODUCED_161_);
constraint int_le_reif(X_INTRODUCED_6_,0,X_INTRODUCED_162_):: defines_var(X_INTRODUCED_162_);
constraint int_le_reif(X_INTRODUCED_7_,0,X_INTRODUCED_163_):: defines_var(X_INTRODUCED_163_);
constraint int_le_reif(X_INTRODUCED_8_,0,X_INTRODUCED_164_):: defines_var(X_INTRODUCED_164_);
constraint int_le_reif(X_INTRODUCED_9_,0,X_INTRODUCED_165_):: defines_var(X_INTRODUCED_165_);
constraint bool2int(X_INTRODUCED_156_,X_INTRODUCED_167_):: defines_var(X_INTRODUCED_167_);
constraint bool2int(X_INTRODUCED_157_,X_INTRODUCED_168_):: defines_var(X_INTRODUCED_168_);
constraint bool2int(X_INTRODUCED_158_,X_INTRODUCED_169_):: defines_var(X_INTRODUCED_169_);
constraint bool2int(X_INTRODUCED_159_,X_INTRODUCED_170_):: defines_var(X_INTRODUCED_170_);
constraint bool2int(X_INTRODUCED_160_,X_INTRODUCED_171_):: defines_var(X_INTRODUCED_171_);
constraint bool2int(X_INTRODUCED_161_,X_INTRODUCED_172_):: defines_var(X_INTRODUCED_172_);
constraint bool2int(X_INTRODUCED_162_,X_INTRODUCED_173_):: defines_var(X_INTRODUCED_173_);
constraint bool2int(X_INTRODUCED_163_,X_INTRODUCED_174_):: defines_var(X_INTRODUCED_174_);
constraint bool2int(X_INTRODUCED_164_,X_INTRODUCED_175_):: defines_var(X_INTRODUCED_175_);
constraint bool2int(X_INTRODUCED_165_,X_INTRODUCED_176_):: defines_var(X_INTRODUCED_176_);
solve :: int_search(X_INTRODUCED_177_,input_order,indomain_min,complete) maximize objective;
